NAME: tsp_446
COMMENT: Random TSP instance
TYPE: TSP
DIMENSION: 50
EDGE_WEIGHT_TYPE: EUC_2D
NODE_COORD_SECTION
1 861 2
2 730 536
3 332 412
4 471 729
5 893 453
6 46 594
7 4 995
8 812 508
9 597 515
10 742 336
11 821 534
12 772 682
13 548 526
14 103 140
15 857 29
16 405 751
17 966 51
18 994 630
19 773 865
20 737 211
21 20 1
22 792 968
23 285 699
24 349 565
25 374 796
26 602 540
27 828 630
28 873 324
29 950 447
30 877 525
31 262 859
32 848 237
33 218 484
34 9 588
35 380 325
36 540 222
37 803 728
38 533 266
39 896 834
40 295 288
41 172 859
42 936 604
43 641 988
44 543 456
45 992 8
46 692 401
47 466 234
48 624 802
49 149 68
50 507 362
